p cnf 200 1110
-101 -20 0
-101 -63 0
-101 -39 0
-101 72 0
-101 -37 0
-101 94 0
-101 -19 0
-101 -44 0
-101 61 0
-101 12 0
101 20 63 39 -72 37 -94 19 44 -61 -12 0
-102 88 0
-102 -26 0
-102 -89 0
-102 -5 0
-102 44 0
-102 64 0
-102 2 0
-102 17 0
-102 31 0
-102 90 0
102 -88 26 89 5 -44 -64 -2 -17 -31 -90 0
-103 -71 0
-103 -38 0
-103 80 0
-103 41 0
-103 -73 0
-103 100 0
-103 -3 0
-103 -60 0
-103 -13 0
-103 77 0
103 71 38 -80 -41 73 -100 3 60 13 -77 0
-104 69 0
-104 10 0
-104 38 0
-104 -92 0
-104 -93 0
-104 13 0
-104 -53 0
-104 20 0
-104 95 0
-104 -6 0
104 -69 -10 -38 92 93 -13 53 -20 -95 6 0
-105 66 0
-105 31 0
-105 -16 0
-105 -80 0
-105 -19 0
-105 53 0
-105 47 0
-105 32 0
-105 -89 0
-105 72 0
105 -66 -31 16 80 19 -53 -47 -32 89 -72 0
-106 -20 0
-106 39 0
-106 -79 0
-106 -11 0
-106 84 0
-106 -73 0
-106 53 0
-106 34 0
-106 -74 0
-106 85 0
106 20 -39 79 11 -84 73 -53 -34 74 -85 0
-107 50 0
-107 -81 0
-107 -21 0
-107 84 0
-107 75 0
-107 -6 0
-107 -60 0
-107 89 0
-107 49 0
-107 77 0
107 -50 81 21 -84 -75 6 60 -89 -49 -77 0
-108 -88 0
-108 -84 0
-108 -68 0
-108 -79 0
-108 70 0
-108 -4 0
-108 -8 0
-108 58 0
-108 -48 0
-108 38 0
108 88 84 68 79 -70 4 8 -58 48 -38 0
-109 16 0
-109 -100 0
-109 -94 0
-109 -50 0
-109 15 0
-109 41 0
-109 -47 0
-109 79 0
-109 -28 0
-109 68 0
109 -16 100 94 50 -15 -41 47 -79 28 -68 0
-110 6 0
-110 -73 0
-110 91 0
-110 -26 0
-110 31 0
-110 -92 0
-110 4 0
-110 -40 0
-110 41 0
-110 43 0
110 -6 73 -91 26 -31 92 -4 40 -41 -43 0
101 102 103 104 105 106 107 108 109 110 0
-111 67 0
-111 88 0
-111 -14 0
-111 -27 0
-111 -62 0
-111 -52 0
-111 8 0
-111 -25 0
-111 32 0
-111 30 0
111 -67 -88 14 27 62 52 -8 25 -32 -30 0
-112 -71 0
-112 50 0
-112 41 0
-112 -31 0
-112 -12 0
-112 -35 0
-112 -11 0
-112 -84 0
-112 -14 0
-112 91 0
112 71 -50 -41 31 12 35 11 84 14 -91 0
-113 44 0
-113 68 0
-113 -29 0
-113 10 0
-113 -57 0
-113 -63 0
-113 64 0
-113 -87 0
-113 -27 0
-113 18 0
113 -44 -68 29 -10 57 63 -64 87 27 -18 0
-114 -1 0
-114 -48 0
-114 22 0
-114 -50 0
-114 -73 0
-114 10 0
-114 98 0
-114 -8 0
-114 23 0
-114 84 0
114 1 48 -22 50 73 -10 -98 8 -23 -84 0
-115 20 0
-115 15 0
-115 29 0
-115 55 0
-115 -12 0
-115 -35 0
-115 80 0
-115 -8 0
-115 -86 0
-115 -94 0
115 -20 -15 -29 -55 12 35 -80 8 86 94 0
-116 62 0
-116 55 0
-116 -78 0
-116 -87 0
-116 -7 0
-116 12 0
-116 17 0
-116 -48 0
-116 18 0
-116 -53 0
116 -62 -55 78 87 7 -12 -17 48 -18 53 0
-117 -39 0
-117 -13 0
-117 -75 0
-117 73 0
-117 37 0
-117 24 0
-117 93 0
-117 12 0
-117 -78 0
-117 -77 0
117 39 13 75 -73 -37 -24 -93 -12 78 77 0
-118 -75 0
-118 25 0
-118 -44 0
-118 77 0
-118 56 0
-118 74 0
-118 17 0
-118 -36 0
-118 -65 0
-118 -8 0
118 75 -25 44 -77 -56 -74 -17 36 65 8 0
-119 -16 0
-119 20 0
-119 35 0
-119 -66 0
-119 19 0
-119 74 0
-119 26 0
-119 -44 0
-119 25 0
-119 90 0
119 16 -20 -35 66 -19 -74 -26 44 -25 -90 0
-120 59 0
-120 -78 0
-120 75 0
-120 80 0
-120 -15 0
-120 24 0
-120 11 0
-120 7 0
-120 67 0
-120 -73 0
120 -59 78 -75 -80 15 -24 -11 -7 -67 73 0
111 112 113 114 115 116 117 118 119 120 0
-121 -74 0
-121 -22 0
-121 -56 0
-121 47 0
-121 -90 0
-121 -45 0
-121 -21 0
-121 78 0
-121 -88 0
-121 -97 0
121 74 22 56 -47 90 45 21 -78 88 97 0
-122 47 0
-122 -76 0
-122 -70 0
-122 -84 0
-122 32 0
-122 -40 0
-122 -97 0
-122 -29 0
-122 -75 0
-122 -73 0
122 -47 76 70 84 -32 40 97 29 75 73 0
-123 78 0
-123 27 0
-123 -36 0
-123 34 0
-123 4 0
-123 -80 0
-123 -14 0
-123 16 0
-123 -25 0
-123 37 0
123 -78 -27 36 -34 -4 80 14 -16 25 -37 0
-124 -29 0
-124 -66 0
-124 24 0
-124 -50 0
-124 72 0
-124 -39 0
-124 30 0
-124 80 0
-124 -54 0
-124 -97 0
124 29 66 -24 50 -72 39 -30 -80 54 97 0
-125 83 0
-125 88 0
-125 94 0
-125 -42 0
-125 -91 0
-125 71 0
-125 40 0
-125 -50 0
-125 31 0
-125 -5 0
125 -83 -88 -94 42 91 -71 -40 50 -31 5 0
-126 -47 0
-126 -10 0
-126 -55 0
-126 8 0
-126 23 0
-126 -33 0
-126 32 0
-126 -76 0
-126 34 0
-126 -98 0
126 47 10 55 -8 -23 33 -32 76 -34 98 0
-127 32 0
-127 -94 0
-127 -73 0
-127 95 0
-127 2 0
-127 87 0
-127 45 0
-127 -69 0
-127 93 0
-127 -63 0
127 -32 94 73 -95 -2 -87 -45 69 -93 63 0
-128 32 0
-128 -82 0
-128 -70 0
-128 -56 0
-128 19 0
-128 53 0
-128 8 0
-128 62 0
-128 46 0
-128 55 0
128 -32 82 70 56 -19 -53 -8 -62 -46 -55 0
-129 85 0
-129 90 0
-129 -41 0
-129 53 0
-129 56 0
-129 -13 0
-129 -12 0
-129 34 0
-129 -95 0
-129 -84 0
129 -85 -90 41 -53 -56 13 12 -34 95 84 0
-130 -56 0
-130 -51 0
-130 -35 0
-130 3 0
-130 10 0
-130 -70 0
-130 -52 0
-130 -40 0
-130 -80 0
-130 -14 0
130 56 51 35 -3 -10 70 52 40 80 14 0
121 122 123 124 125 126 127 128 129 130 0
-131 10 0
-131 48 0
-131 -42 0
-131 -66 0
-131 -8 0
-131 -40 0
-131 46 0
-131 -44 0
-131 70 0
-131 -14 0
131 -10 -48 42 66 8 40 -46 44 -70 14 0
-132 -46 0
-132 -16 0
-132 -100 0
-132 23 0
-132 97 0
-132 -33 0
-132 -77 0
-132 91 0
-132 84 0
-132 -94 0
132 46 16 100 -23 -97 33 77 -91 -84 94 0
-133 32 0
-133 49 0
-133 -40 0
-133 -63 0
-133 56 0
-133 -23 0
-133 10 0
-133 -76 0
-133 -37 0
-133 69 0
133 -32 -49 40 63 -56 23 -10 76 37 -69 0
-134 100 0
-134 -61 0
-134 87 0
-134 36 0
-134 -7 0
-134 78 0
-134 -60 0
-134 40 0
-134 -25 0
-134 34 0
134 -100 61 -87 -36 7 -78 60 -40 25 -34 0
-135 30 0
-135 -4 0
-135 93 0
-135 -37 0
-135 16 0
-135 -90 0
-135 55 0
-135 -80 0
-135 -56 0
-135 58 0
135 -30 4 -93 37 -16 90 -55 80 56 -58 0
-136 -23 0
-136 -5 0
-136 -27 0
-136 65 0
-136 72 0
-136 77 0
-136 90 0
-136 -32 0
-136 -20 0
-136 4 0
136 23 5 27 -65 -72 -77 -90 32 20 -4 0
-137 21 0
-137 -56 0
-137 3 0
-137 -1 0
-137 79 0
-137 17 0
-137 -89 0
-137 -13 0
-137 -7 0
-137 29 0
137 -21 56 -3 1 -79 -17 89 13 7 -29 0
-138 49 0
-138 -34 0
-138 -98 0
-138 -63 0
-138 -26 0
-138 25 0
-138 40 0
-138 18 0
-138 39 0
-138 13 0
138 -49 34 98 63 26 -25 -40 -18 -39 -13 0
-139 86 0
-139 -37 0
-139 89 0
-139 -24 0
-139 -54 0
-139 -50 0
-139 61 0
-139 -47 0
-139 28 0
-139 57 0
139 -86 37 -89 24 54 50 -61 47 -28 -57 0
-140 88 0
-140 -79 0
-140 81 0
-140 -84 0
-140 44 0
-140 -20 0
-140 15 0
-140 -3 0
-140 -61 0
-140 38 0
140 -88 79 -81 84 -44 20 -15 3 61 -38 0
131 132 133 134 135 136 137 138 139 140 0
-141 89 0
-141 -77 0
-141 32 0
-141 -57 0
-141 -41 0
-141 -19 0
-141 -50 0
-141 81 0
-141 -63 0
-141 -12 0
141 -89 77 -32 57 41 19 50 -81 63 12 0
-142 -40 0
-142 5 0
-142 87 0
-142 -33 0
-142 -70 0
-142 45 0
-142 -54 0
-142 76 0
-142 23 0
-142 25 0
142 40 -5 -87 33 70 -45 54 -76 -23 -25 0
-143 -53 0
-143 20 0
-143 -43 0
-143 32 0
-143 62 0
-143 -95 0
-143 -13 0
-143 -23 0
-143 -96 0
-143 -94 0
143 53 -20 43 -32 -62 95 13 23 96 94 0
-144 35 0
-144 21 0
-144 85 0
-144 -61 0
-144 30 0
-144 83 0
-144 -47 0
-144 38 0
-144 9 0
-144 -34 0
144 -35 -21 -85 61 -30 -83 47 -38 -9 34 0
-145 -49 0
-145 4 0
-145 63 0
-145 81 0
-145 73 0
-145 -85 0
-145 -26 0
-145 66 0
-145 17 0
-145 78 0
145 49 -4 -63 -81 -73 85 26 -66 -17 -78 0
-146 96 0
-146 -38 0
-146 47 0
-146 91 0
-146 -11 0
-146 75 0
-146 83 0
-146 45 0
-146 66 0
-146 23 0
146 -96 38 -47 -91 11 -75 -83 -45 -66 -23 0
-147 85 0
-147 58 0
-147 -32 0
-147 8 0
-147 81 0
-147 66 0
-147 -54 0
-147 -83 0
-147 73 0
-147 -17 0
147 -85 -58 32 -8 -81 -66 54 83 -73 17 0
-148 17 0
-148 -87 0
-148 -83 0
-148 -92 0
-148 75 0
-148 4 0
-148 81 0
-148 22 0
-148 -36 0
-148 -58 0
148 -17 87 83 92 -75 -4 -81 -22 36 58 0
-149 95 0
-149 8 0
-149 -7 0
-149 9 0
-149 -13 0
-149 59 0
-149 100 0
-149 -5 0
-149 27 0
-149 60 0
149 -95 -8 7 -9 13 -59 -100 5 -27 -60 0
-150 -25 0
-150 73 0
-150 54 0
-150 67 0
-150 -55 0
-150 -49 0
-150 17 0
-150 51 0
-150 23 0
-150 9 0
150 25 -73 -54 -67 55 49 -17 -51 -23 -9 0
141 142 143 144 145 146 147 148 149 150 0
-151 29 0
-151 48 0
-151 12 0
-151 -77 0
-151 -69 0
-151 -43 0
-151 60 0
-151 -10 0
-151 40 0
-151 -17 0
151 -29 -48 -12 77 69 43 -60 10 -40 17 0
-152 -69 0
-152 -57 0
-152 87 0
-152 -75 0
-152 -100 0
-152 78 0
-152 25 0
-152 -2 0
-152 45 0
-152 73 0
152 69 57 -87 75 100 -78 -25 2 -45 -73 0
-153 -76 0
-153 39 0
-153 84 0
-153 -49 0
-153 -18 0
-153 94 0
-153 -59 0
-153 7 0
-153 25 0
-153 73 0
153 76 -39 -84 49 18 -94 59 -7 -25 -73 0
-154 54 0
-154 -38 0
-154 -89 0
-154 -96 0
-154 85 0
-154 -18 0
-154 94 0
-154 -45 0
-154 5 0
-154 66 0
154 -54 38 89 96 -85 18 -94 45 -5 -66 0
-155 -88 0
-155 15 0
-155 41 0
-155 95 0
-155 -89 0
-155 48 0
-155 8 0
-155 56 0
-155 -75 0
-155 -16 0
155 88 -15 -41 -95 89 -48 -8 -56 75 16 0
-156 97 0
-156 -18 0
-156 -72 0
-156 65 0
-156 49 0
-156 39 0
-156 44 0
-156 47 0
-156 -9 0
-156 -21 0
156 -97 18 72 -65 -49 -39 -44 -47 9 21 0
-157 -55 0
-157 67 0
-157 71 0
-157 -93 0
-157 -100 0
-157 -57 0
-157 51 0
-157 -10 0
-157 -42 0
-157 16 0
157 55 -67 -71 93 100 57 -51 10 42 -16 0
-158 44 0
-158 -45 0
-158 88 0
-158 -82 0
-158 98 0
-158 56 0
-158 14 0
-158 -94 0
-158 -38 0
-158 61 0
158 -44 45 -88 82 -98 -56 -14 94 38 -61 0
-159 -85 0
-159 23 0
-159 -79 0
-159 25 0
-159 -48 0
-159 24 0
-159 5 0
-159 -63 0
-159 -45 0
-159 92 0
159 85 -23 79 -25 48 -24 -5 63 45 -92 0
-160 53 0
-160 80 0
-160 -88 0
-160 25 0
-160 2 0
-160 83 0
-160 84 0
-160 -78 0
-160 92 0
-160 -52 0
160 -53 -80 88 -25 -2 -83 -84 78 -92 52 0
151 152 153 154 155 156 157 158 159 160 0
-161 -89 0
-161 9 0
-161 53 0
-161 -35 0
-161 -63 0
-161 93 0
-161 -86 0
-161 4 0
-161 88 0
-161 40 0
161 89 -9 -53 35 63 -93 86 -4 -88 -40 0
-162 67 0
-162 -71 0
-162 -88 0
-162 -20 0
-162 44 0
-162 31 0
-162 83 0
-162 -60 0
-162 79 0
-162 -9 0
162 -67 71 88 20 -44 -31 -83 60 -79 9 0
-163 19 0
-163 -100 0
-163 -29 0
-163 38 0
-163 34 0
-163 70 0
-163 -76 0
-163 -82 0
-163 66 0
-163 -32 0
163 -19 100 29 -38 -34 -70 76 82 -66 32 0
-164 -4 0
-164 -48 0
-164 -42 0
-164 26 0
-164 100 0
-164 88 0
-164 44 0
-164 19 0
-164 16 0
-164 -91 0
164 4 48 42 -26 -100 -88 -44 -19 -16 91 0
-165 -14 0
-165 -20 0
-165 66 0
-165 -11 0
-165 67 0
-165 34 0
-165 30 0
-165 61 0
-165 80 0
-165 26 0
165 14 20 -66 11 -67 -34 -30 -61 -80 -26 0
-166 -67 0
-166 32 0
-166 65 0
-166 -96 0
-166 -90 0
-166 37 0
-166 -59 0
-166 34 0
-166 72 0
-166 94 0
166 67 -32 -65 96 90 -37 59 -34 -72 -94 0
-167 30 0
-167 -16 0
-167 -29 0
-167 61 0
-167 38 0
-167 80 0
-167 -57 0
-167 -24 0
-167 -40 0
-167 1 0
167 -30 16 29 -61 -38 -80 57 24 40 -1 0
-168 83 0
-168 9 0
-168 91 0
-168 -61 0
-168 -54 0
-168 -69 0
-168 -4 0
-168 12 0
-168 -94 0
-168 77 0
168 -83 -9 -91 61 54 69 4 -12 94 -77 0
-169 -89 0
-169 -44 0
-169 -29 0
-169 -62 0
-169 -55 0
-169 -21 0
-169 92 0
-169 -22 0
-169 25 0
-169 96 0
169 89 44 29 62 55 21 -92 22 -25 -96 0
-170 93 0
-170 54 0
-170 90 0
-170 -69 0
-170 52 0
-170 -53 0
-170 -19 0
-170 34 0
-170 12 0
-170 -15 0
170 -93 -54 -90 69 -52 53 19 -34 -12 15 0
161 162 163 164 165 166 167 168 169 170 0
-171 94 0
-171 99 0
-171 8 0
-171 2 0
-171 -36 0
-171 12 0
-171 -14 0
-171 -21 0
-171 79 0
-171 59 0
171 -94 -99 -8 -2 36 -12 14 21 -79 -59 0
-172 -73 0
-172 38 0
-172 22 0
-172 69 0
-172 57 0
-172 -85 0
-172 31 0
-172 -67 0
-172 -14 0
-172 17 0
172 73 -38 -22 -69 -57 85 -31 67 14 -17 0
-173 -8 0
-173 62 0
-173 -79 0
-173 14 0
-173 -12 0
-173 -59 0
-173 46 0
-173 37 0
-173 5 0
-173 -17 0
173 8 -62 79 -14 12 59 -46 -37 -5 17 0
-174 -13 0
-174 69 0
-174 5 0
-174 36 0
-174 -100 0
-174 -89 0
-174 -32 0
-174 -85 0
-174 -30 0
-174 91 0
174 13 -69 -5 -36 100 89 32 85 30 -91 0
-175 49 0
-175 -32 0
-175 86 0
-175 29 0
-175 -98 0
-175 -77 0
-175 44 0
-175 -7 0
-175 -14 0
-175 24 0
175 -49 32 -86 -29 98 77 -44 7 14 -24 0
-176 -19 0
-176 -17 0
-176 -6 0
-176 -82 0
-176 -26 0
-176 55 0
-176 -75 0
-176 -32 0
-176 69 0
-176 -1 0
176 19 17 6 82 26 -55 75 32 -69 1 0
-177 99 0
-177 47 0
-177 74 0
-177 -39 0
-177 9 0
-177 -80 0
-177 58 0
-177 -75 0
-177 -95 0
-177 7 0
177 -99 -47 -74 39 -9 80 -58 75 95 -7 0
-178 91 0
-178 -59 0
-178 28 0
-178 -74 0
-178 -90 0
-178 46 0
-178 77 0
-178 37 0
-178 56 0
-178 36 0
178 -91 59 -28 74 90 -46 -77 -37 -56 -36 0
-179 -49 0
-179 -13 0
-179 -82 0
-179 -96 0
-179 31 0
-179 -42 0
-179 -10 0
-179 95 0
-179 -85 0
-179 15 0
179 49 13 82 96 -31 42 10 -95 85 -15 0
-180 85 0
-180 -67 0
-180 32 0
-180 82 0
-180 97 0
-180 47 0
-180 24 0
-180 -42 0
-180 98 0
-180 95 0
180 -85 67 -32 -82 -97 -47 -24 42 -98 -95 0
171 172 173 174 175 176 177 178 179 180 0
-181 32 0
-181 13 0
-181 -39 0
-181 -100 0
-181 44 0
-181 -37 0
-181 -26 0
-181 -21 0
-181 94 0
-181 -61 0
181 -32 -13 39 100 -44 37 26 21 -94 61 0
-182 67 0
-182 7 0
-182 -14 0
-182 10 0
-182 -20 0
-182 -75 0
-182 40 0
-182 -98 0
-182 68 0
-182 -37 0
182 -67 -7 14 -10 20 75 -40 98 -68 37 0
-183 -36 0
-183 84 0
-183 3 0
-183 53 0
-183 68 0
-183 -70 0
-183 57 0
-183 18 0
-183 38 0
-183 -21 0
183 36 -84 -3 -53 -68 70 -57 -18 -38 21 0
-184 84 0
-184 -24 0
-184 96 0
-184 -65 0
-184 -4 0
-184 -7 0
-184 37 0
-184 6 0
-184 -88 0
-184 63 0
184 -84 24 -96 65 4 7 -37 -6 88 -63 0
-185 -71 0
-185 64 0
-185 19 0
-185 79 0
-185 -33 0
-185 -68 0
-185 -62 0
-185 -52 0
-185 -12 0
-185 -58 0
185 71 -64 -19 -79 33 68 62 52 12 58 0
-186 -38 0
-186 1 0
-186 -63 0
-186 12 0
-186 -88 0
-186 67 0
-186 76 0
-186 -97 0
-186 -86 0
-186 48 0
186 38 -1 63 -12 88 -67 -76 97 86 -48 0
-187 39 0
-187 53 0
-187 13 0
-187 -20 0
-187 -3 0
-187 -89 0
-187 58 0
-187 52 0
-187 -2 0
-187 -45 0
187 -39 -53 -13 20 3 89 -58 -52 2 45 0
-188 -39 0
-188 16 0
-188 -43 0
-188 91 0
-188 -89 0
-188 -42 0
-188 3 0
-188 -15 0
-188 -17 0
-188 -96 0
188 39 -16 43 -91 89 42 -3 15 17 96 0
-189 -51 0
-189 14 0
-189 29 0
-189 88 0
-189 82 0
-189 5 0
-189 18 0
-189 79 0
-189 60 0
-189 -85 0
189 51 -14 -29 -88 -82 -5 -18 -79 -60 85 0
-190 53 0
-190 -36 0
-190 31 0
-190 -66 0
-190 -87 0
-190 99 0
-190 70 0
-190 57 0
-190 22 0
-190 -32 0
190 -53 36 -31 66 87 -99 -70 -57 -22 32 0
181 182 183 184 185 186 187 188 189 190 0
-191 92 0
-191 -64 0
-191 26 0
-191 -13 0
-191 -74 0
-191 -35 0
-191 47 0
-191 -37 0
-191 -22 0
-191 -42 0
191 -92 64 -26 13 74 35 -47 37 22 42 0
-192 24 0
-192 -14 0
-192 -9 0
-192 -22 0
-192 -93 0
-192 25 0
-192 -27 0
-192 -77 0
-192 -89 0
-192 -23 0
192 -24 14 9 22 93 -25 27 77 89 23 0
-193 92 0
-193 -35 0
-193 61 0
-193 84 0
-193 -24 0
-193 -32 0
-193 85 0
-193 -39 0
-193 -65 0
-193 3 0
193 -92 35 -61 -84 24 32 -85 39 65 -3 0
-194 100 0
-194 65 0
-194 33 0
-194 50 0
-194 -53 0
-194 73 0
-194 -42 0
-194 -5 0
-194 68 0
-194 58 0
194 -100 -65 -33 -50 53 -73 42 5 -68 -58 0
-195 99 0
-195 82 0
-195 97 0
-195 -22 0
-195 14 0
-195 47 0
-195 38 0
-195 43 0
-195 -94 0
-195 93 0
195 -99 -82 -97 22 -14 -47 -38 -43 94 -93 0
-196 -35 0
-196 -58 0
-196 12 0
-196 5 0
-196 7 0
-196 2 0
-196 87 0
-196 -6 0
-196 53 0
-196 59 0
196 35 58 -12 -5 -7 -2 -87 6 -53 -59 0
-197 74 0
-197 -28 0
-197 89 0
-197 -45 0
-197 70 0
-197 -53 0
-197 50 0
-197 51 0
-197 -46 0
-197 -91 0
197 -74 28 -89 45 -70 53 -50 -51 46 91 0
-198 11 0
-198 -74 0
-198 16 0
-198 26 0
-198 -65 0
-198 -62 0
-198 -35 0
-198 17 0
-198 76 0
-198 -57 0
198 -11 74 -16 -26 65 62 35 -17 -76 57 0
-199 -1 0
-199 -66 0
-199 31 0
-199 28 0
-199 51 0
-199 -67 0
-199 98 0
-199 -7 0
-199 -94 0
-199 49 0
199 1 66 -31 -28 -51 67 -98 7 94 -49 0
-200 99 0
-200 62 0
-200 -6 0
-200 10 0
-200 64 0
-200 -91 0
-200 -66 0
-200 -72 0
-200 13 0
-200 29 0
200 -99 -62 6 -10 -64 91 66 72 -13 -29 0
191 192 193 194 195 196 197 198 199 200 0
